c A SAT instance generated from a 3-CNF formula that had 30 clauses and 10 variables
p cnf 10 30
5 -1 9 0
-2 1 7 0
-1 -3 -9 0
3 2 -1 0
-2 -5 -3 0
-3 -6 -5 0
-2 7 9 0
9 10 1 0
4 6 -7 0
-6 1 -9 0
-9 -10 -2 0
8 -5 3 0
-5 -10 -4 0
7 -9 3 0
6 4 1 0
4 -9 -2 0
-8 -1 3 0
-9 -10 5 0
6 -3 10 0
3 7 4 0
4 -7 -9 0
-8 4 -3 0
-3 -5 -8 0
-10 2 -9 0
10 4 -1 0
-6 4 7 0
2 7 9 0
-8 -9 7 0
-6 -2 9 0
-10 7 -4 0
